
******************************************************************************
This program contains Ipopt, a library for large-scale nonlinear optimization.
 Ipopt is released as open source code under the Eclipse Public License (EPL).
         For more information visit http://projects.coin-or.org/Ipopt

This version of Ipopt was compiled from source code available at
    https://github.com/IDAES/Ipopt as part of the Institute for the Design of
    Advanced Energy Systems Process Systems Engineering Framework (IDAES PSE
    Framework) Copyright (c) 2018-2019. See https://github.com/IDAES/idaes-pse.

This version of Ipopt was compiled using HSL, a collection of Fortran codes
    for large-scale scientific computation.  All technical papers, sales and
    publicity material resulting from use of the HSL codes within IPOPT must
    contain the following acknowledgement:
        HSL, a collection of Fortran codes for large-scale scientific
        computation. See http://www.hsl.rl.ac.uk.
******************************************************************************

This is Ipopt version 3.13.2, running with linear solver ma27.

Number of nonzeros in equality constraint Jacobian...:      412
Number of nonzeros in inequality constraint Jacobian.:       36
Number of nonzeros in Lagrangian Hessian.............:      175

Total number of variables............................:      101
                     variables with only lower bounds:        0
                variables with lower and upper bounds:       41
                     variables with only upper bounds:        0
Total number of equality constraints.................:      101
Total number of inequality constraints...............:       36
        inequality constraints with only lower bounds:       18
   inequality constraints with lower and upper bounds:        0
        inequality constraints with only upper bounds:       18

iter    objective    inf_pr   inf_du lg(mu)  ||d||  lg(rg) alpha_du alpha_pr  ls
   0  0.0000000e+00 3.78e+05 1.00e+00  -1.0 0.00e+00    -  0.00e+00 0.00e+00   0
   1  0.0000000e+00 2.07e+05 1.19e+04  -1.0 3.29e+06    -  1.10e-02 4.95e-01h  2
   2  0.0000000e+00 4.19e+04 1.33e+05  -1.0 4.72e+06    -  9.89e-01 9.90e-01h  1
   3  0.0000000e+00 2.11e+05 2.67e+05  -1.0 2.74e+06    -  5.40e-03 9.90e-01h  1
   4  0.0000000e+00 1.26e+05 1.10e+06  -1.0 9.52e+06    -  2.95e-01 4.95e-01h  2
   5  0.0000000e+00 7.92e+04 9.72e+05  -1.0 4.86e+06    -  5.14e-03 4.95e-01h  2
   6  0.0000000e+00 5.18e+04 5.54e+05  -1.0 4.43e+06    -  5.83e-01 9.90e-01h  1
   7  0.0000000e+00 5.31e+04 1.84e+06  -1.0 3.97e+06    -  1.50e-02 9.90e-01h  1
   8  0.0000000e+00 3.90e+05 1.77e+06  -1.0 2.67e+06    -  9.69e-02 9.90e-01H  1
   9  0.0000000e+00 1.99e+05 2.19e+06  -1.0 2.90e+06    -  9.88e-01 9.90e-01h  1
iter    objective    inf_pr   inf_du lg(mu)  ||d||  lg(rg) alpha_du alpha_pr  ls
  10  0.0000000e+00 1.13e+05 1.12e+06  -1.0 5.71e+06    -  9.90e-01 4.95e-01h  2
  11  0.0000000e+00 9.94e+04 9.80e+05  -1.0 4.20e+06    -  9.90e-01 1.24e-01h  4
  12  0.0000000e+00 9.33e+04 9.19e+05  -1.0 3.92e+06    -  1.00e+00 6.19e-02h  5
  13  0.0000000e+00 9.33e+04 9.19e+05  -1.0 3.79e+06    -  1.00e+00 4.83e-04h 12
  14  0.0000000e+00 9.32e+04 9.19e+05  -1.0 3.79e+06    -  1.00e+00 2.42e-04h 13
  15  0.0000000e+00 2.38e+04 1.10e+05  -1.0 3.79e+06    -  1.00e+00 9.90e-01h  1
  16  0.0000000e+00 9.69e+05 3.20e+06  -1.0 1.57e+06    -  4.07e-05 9.90e-01F  1
  17  0.0000000e+00 4.60e+05 2.37e+06  -1.0 2.33e+06    -  1.00e+00 9.90e-01h  1
  18  0.0000000e+00 2.61e+05 1.24e+06  -1.0 8.81e+06    -  1.00e+00 4.95e-01h  2
  19  0.0000000e+00 1.48e+05 6.35e+05  -1.0 6.58e+06    -  1.00e+00 4.95e-01h  2
iter    objective    inf_pr   inf_du lg(mu)  ||d||  lg(rg) alpha_du alpha_pr  ls
  20  0.0000000e+00 1.39e+05 5.96e+05  -1.0 4.87e+06    -  1.00e+00 6.19e-02h  5
  21  0.0000000e+00 1.34e+05 5.78e+05  -1.0 4.71e+06    -  1.00e+00 3.09e-02h  6
  22  0.0000000e+00 1.32e+05 5.69e+05  -1.0 4.63e+06    -  1.00e+00 1.55e-02h  7
  23  0.0000000e+00 3.37e+04 1.21e+05  -1.0 4.59e+06    -  1.00e+00 9.90e-01h  1
  24  0.0000000e+00 2.21e+05 8.07e+06  -1.0 2.01e+06    -  2.24e-05 9.90e-01f  1
  25  0.0000000e+00 2.43e+05 4.57e+06  -1.0 1.21e+07    -  3.35e-01 4.95e-01h  2
  26  0.0000000e+00 1.43e+05 2.45e+06  -1.0 4.55e+06    -  5.15e-03 4.95e-01h  2
  27  0.0000000e+00 6.36e+04 3.45e+05  -1.0 2.93e+06    -  5.37e-01 9.90e-01h  1
  28  0.0000000e+00 3.71e+04 5.23e+05  -1.0 4.25e+06    -  1.65e-02 9.90e-01h  1
  29  0.0000000e+00 5.90e+05 5.10e+05  -1.0 2.03e+06    -  1.00e+00 9.90e-01F  1
iter    objective    inf_pr   inf_du lg(mu)  ||d||  lg(rg) alpha_du alpha_pr  ls
  30  0.0000000e+00 2.88e+05 9.57e+05  -1.0 2.62e+06    -  4.13e-01 9.90e-01h  1
  31  0.0000000e+00 7.35e+04 2.17e+05  -1.0 6.88e+06    -  1.00e+00 9.90e-01h  1
  32  0.0000000e+00 2.81e+05 1.01e+06  -1.0 3.25e+06    -  9.85e-05 9.90e-01F  1
  33  0.0000000e+00 1.56e+05 4.88e+05  -1.0 3.13e+06    -  1.00e+00 9.90e-01h  1
  34  0.0000000e+00 8.81e+04 2.48e+05  -1.0 5.09e+06    -  1.00e+00 4.95e-01h  2
  35  0.0000000e+00 6.77e+04 1.87e+05  -1.0 3.74e+06    -  1.00e+00 2.48e-01h  3
  36  0.0000000e+00 3.06e+05 4.79e+05  -1.0 3.16e+06    -  3.74e-03 9.90e-01F  1
  37  0.0000000e+00 1.63e+05 3.59e+05  -1.0 3.08e+06    -  1.00e+00 9.90e-01h  1
  38  0.0000000e+00 1.61e+05 3.53e+05  -1.0 5.13e+06    -  1.00e+00 1.55e-02h  7
  39  0.0000000e+00 1.60e+05 3.52e+05  -1.0 5.09e+06    -  1.00e+00 3.87e-03h  9
iter    objective    inf_pr   inf_du lg(mu)  ||d||  lg(rg) alpha_du alpha_pr  ls
  40  0.0000000e+00 1.60e+05 3.52e+05  -1.0 5.08e+06    -  1.00e+00 9.67e-04h 11
  41  0.0000000e+00 4.08e+04 4.08e+04  -1.0 5.08e+06    -  9.90e-01 9.90e-01s 22
  42r 0.0000000e+00 4.08e+04 9.99e+02   3.1 0.00e+00    -  0.00e+00 0.00e+00R  1
  43r 0.0000000e+00 3.81e+04 1.50e+03   3.1 1.31e+06    -  1.53e-01 1.01e-03f  1
  44r 0.0000000e+00 8.78e+05 6.42e+04   1.7 4.64e+03    -  2.54e-02 1.49e-01f  1
  45r 0.0000000e+00 8.62e+05 4.96e+04   1.7 9.55e+00   2.0 1.00e+00 2.44e-01f  1
  46r 0.0000000e+00 8.53e+05 2.84e+04   1.7 3.00e+01   1.5 1.00e+00 4.26e-01f  1
  47r 0.0000000e+00 7.52e+05 3.51e+04   1.7 9.56e+01   1.0 1.00e+00 8.79e-01f  1
  48r 0.0000000e+00 7.31e+05 3.24e+04   1.7 1.49e+04    -  6.41e-02 1.27e-02f  1
  49r 0.0000000e+00 7.26e+05 3.24e+04   1.7 2.66e+03    -  1.00e+00 5.57e-03f  1
iter    objective    inf_pr   inf_du lg(mu)  ||d||  lg(rg) alpha_du alpha_pr  ls
  50r 0.0000000e+00 1.03e+05 6.18e+03   1.7 1.36e+03    -  1.00e+00 8.58e-01f  1
  51r 0.0000000e+00 8.16e+03 1.03e+02   1.7 8.73e+02    -  1.00e+00 1.00e+00f  1
  52r 0.0000000e+00 1.60e+03 3.57e+00  -0.4 1.53e+01    -  9.98e-01 9.56e-01f  1
  53r 0.0000000e+00 3.30e+03 3.34e+00  -1.8 7.93e+02    -  9.96e-01 9.49e-01f  1
  54r 0.0000000e+00 2.05e+03 7.34e+01  -1.8 3.86e+03    -  1.00e+00 8.28e-01f  1
  55r 0.0000000e+00 4.18e+02 4.90e+00  -1.8 7.53e+02    -  1.00e+00 1.00e+00f  1
  56r 0.0000000e+00 2.99e+02 5.99e-03  -1.8 7.63e+00    -  1.00e+00 1.00e+00h  1
  57r 0.0000000e+00 9.72e+00 5.85e-02  -4.0 1.84e+01    -  1.00e+00 1.00e+00f  1
  58r 0.0000000e+00 8.69e+00 2.07e+00  -4.0 5.46e+04    -  1.00e+00 1.00e+00f  1
  59r 0.0000000e+00 1.90e+00 3.63e-05  -4.0 6.90e+00    -  1.00e+00 1.00e+00h  1
iter    objective    inf_pr   inf_du lg(mu)  ||d||  lg(rg) alpha_du alpha_pr  ls
  60r 0.0000000e+00 5.65e-01 4.10e-03  -6.0 8.63e-02    -  1.00e+00 1.00e+00f  1
  61r 0.0000000e+00 8.64e+02 1.79e+01  -6.0 5.53e+05    -  1.00e+00 1.00e+00f  1
  62r 0.0000000e+00 8.82e-01 5.56e-02  -6.0 6.46e+03    -  1.00e+00 1.00e+00h  1
  63r 0.0000000e+00 5.04e-01 1.74e-06  -6.0 2.62e+00    -  1.00e+00 1.00e+00h  1
  64r 0.0000000e+00 5.04e-01 1.54e-01  -8.9 2.37e-03    -  1.00e+00 9.88e-01h  1
  65r 0.0000000e+00 5.04e-01 1.19e-04  -8.9 3.21e-05   0.6 1.00e+00 1.00e+00f  1
  66r 0.0000000e+00 5.04e-01 1.16e-04  -8.9 9.42e-05   0.1 1.00e+00 1.00e+00h  1
  67r 0.0000000e+00 5.04e-01 1.16e-04  -8.9 2.82e-04  -0.4 1.00e+00 1.00e+00H  1
  68r 0.0000000e+00 5.04e-01 6.40e-01  -8.9 8.46e-04  -0.9 1.00e+00 5.00e-01h  2
  69r 0.0000000e+00 5.04e-01 2.31e+00  -8.9 2.54e-03  -1.3 1.00e+00 5.00e-01h  2
iter    objective    inf_pr   inf_du lg(mu)  ||d||  lg(rg) alpha_du alpha_pr  ls
  70r 0.0000000e+00 5.04e-01 1.28e+01  -8.9 7.62e-03  -1.8 1.00e+00 1.25e-01h  4
  71r 0.0000000e+00 5.04e-01 1.16e-04  -8.9 2.29e-02  -2.3 1.00e+00 1.00e+00f  1
  72r 0.0000000e+00 5.04e-01 1.16e-04  -8.9 6.86e-02  -2.8 1.00e+00 1.00e+00f  1
  73r 0.0000000e+00 5.04e-01 1.16e-04  -8.9 2.06e-01  -3.2 1.00e+00 1.00e+00f  1
  74r 0.0000000e+00 5.04e-01 1.16e-04  -8.9 6.17e-01  -3.7 1.00e+00 1.00e+00f  1
  75r 0.0000000e+00 5.04e-01 1.16e-04  -8.9 1.85e+00  -4.2 1.00e+00 1.00e+00f  1
  76r 0.0000000e+00 5.04e-01 1.16e-04  -8.9 5.55e+00  -4.7 1.00e+00 1.00e+00f  1
  77r 0.0000000e+00 5.04e-01 1.16e-04  -8.9 1.67e+01  -5.2 1.00e+00 1.00e+00f  1
  78r 0.0000000e+00 5.04e-01 1.16e-04  -8.9 5.00e+01  -5.6 1.00e+00 1.00e+00f  1
  79r 0.0000000e+00 5.04e-01 1.16e-04  -8.9 1.50e+02  -6.1 1.00e+00 1.00e+00f  1
iter    objective    inf_pr   inf_du lg(mu)  ||d||  lg(rg) alpha_du alpha_pr  ls
  80r 0.0000000e+00 5.04e-01 3.49e-04  -8.9 4.50e+02  -6.6 1.00e+00 1.00e+00f  1
  81r 0.0000000e+00 5.04e-01 1.06e-03  -8.9 1.35e+03  -7.1 1.00e+00 1.00e+00f  1
  82r 0.0000000e+00 5.03e-01 3.34e-03  -8.9 4.05e+03  -7.5 1.00e+00 1.00e+00f  1
  83r 0.0000000e+00 5.02e-01 1.14e-02  -8.9 1.22e+04  -8.0 1.00e+00 1.00e+00f  1
  84r 0.0000000e+00 3.27e+00 6.72e-02  -8.9 3.66e+04  -8.5 1.00e+00 1.00e+00f  1
  85r 0.0000000e+00 2.95e+01 6.07e-01  -8.9 1.10e+05  -9.0 1.00e+00 1.00e+00f  1
  86r 0.0000000e+00 2.67e+02 5.56e+00  -8.9 3.39e+05  -9.5 1.00e+00 1.00e+00f  1
  87r 0.0000000e+00 3.60e+03 5.69e+01  -8.9 1.13e+06  -9.9 9.89e-01 1.00e+00f  1
  88r 0.0000000e+00 8.28e+03 9.73e+01  -8.9 9.31e+06 -10.4 1.49e-01 1.10e-01f  1
  89r 0.0000000e+00 8.28e+03 1.99e+03  -8.9 2.92e+06 -10.0 0.00e+00 5.12e-11R  3
iter    objective    inf_pr   inf_du lg(mu)  ||d||  lg(rg) alpha_du alpha_pr  ls
  90r 0.0000000e+00 8.28e+03 1.99e+03  -8.9 1.16e+07  -9.6 3.18e-03 6.51e-16f 19
  91r 0.0000000e+00 8.28e+03 2.00e+03  -8.9 5.58e+07 -10.0 1.20e-02 5.84e-18f 44
  92r 0.0000000e+00 8.28e+03 2.00e+03  -8.9 1.22e+07  -9.6 3.60e-03 2.34e-17f 42
  93r 0.0000000e+00 8.28e+03 2.00e+03  -8.9 6.76e+07 -10.1 1.25e-02 1.46e-18f 46
  94r 0.0000000e+00 8.28e+03 2.00e+03  -8.9 1.41e+07  -9.7 3.53e-03 2.34e-17f 42
  95r 0.0000000e+00 6.84e+03 2.00e+03  -8.9 9.04e+07 -10.1 1.33e-02 5.14e-05f  1
  96r 0.0000000e+00 3.70e+03 2.00e+03  -8.9 1.51e+07  -9.7 2.35e-03 3.40e-04f  1
  97r 0.0000000e+00 3.35e+03 2.00e+03  -8.9 1.29e+07 -10.2 3.47e-02 1.41e-03f  1
  98r 0.0000000e+00 2.18e+03 1.98e+03  -8.9 1.79e+06  -9.8 2.18e-02 6.24e-03f  1
  99r 0.0000000e+00 2.24e+03 1.93e+03  -8.9 1.72e+07 -10.2 6.39e-02 2.51e-02f  1
iter    objective    inf_pr   inf_du lg(mu)  ||d||  lg(rg) alpha_du alpha_pr  ls
 100r 0.0000000e+00 1.98e+03 1.76e+03  -8.9 1.56e+06  -9.8 4.33e-01 8.76e-02f  1
 101r 0.0000000e+00 2.59e+03 1.59e+03  -8.9 6.20e+06 -10.3 2.25e-01 9.76e-02f  1
 102r 0.0000000e+00 2.62e+03 1.59e+03  -8.9 9.00e+08 -10.8 1.03e-03 1.00e-04f  1
 103r 0.0000000e+00 2.62e+03 1.59e+03  -8.9 4.33e+06 -10.3 3.84e-01 8.44e-10h  1
 104r 0.0000000e+00 3.81e+03 1.55e+03  -8.9 2.29e+07 -10.8 1.87e-02 4.13e-02f  1
 105r 0.0000000e+00 5.14e+03 1.48e+03  -8.9 3.35e+07 -11.3 5.13e-02 3.20e-02f  1
 106r 0.0000000e+00 1.89e+04 1.35e+03  -8.9 2.97e+07    -  2.62e-01 7.83e-02f  1
 107r 0.0000000e+00 1.87e+04 1.16e+03  -8.9 5.11e+06    -  1.66e-01 6.44e-03f  1
 108r 0.0000000e+00 1.87e+04 9.90e+02  -8.9 5.32e+06    -  2.09e-01 1.23e-01f  1
 109r 0.0000000e+00 2.80e+04 5.30e+02  -8.9 6.51e+06    -  6.11e-01 3.06e-01f  1
iter    objective    inf_pr   inf_du lg(mu)  ||d||  lg(rg) alpha_du alpha_pr  ls
 110r 0.0000000e+00 2.05e+04 2.87e+02  -8.9 4.43e+06    -  8.29e-01 3.34e-01h  1
 111r 0.0000000e+00 2.20e+04 4.38e+03  -8.9 2.25e+06    -  3.04e-01 9.84e-01h  1
 112r 0.0000000e+00 2.27e+04 3.62e+03  -8.9 4.26e+06    -  7.70e-03 1.70e-01f  1
 113r 0.0000000e+00 3.05e+04 3.07e+03  -8.9 4.52e+06    -  2.84e-01 8.15e-01f  1
 114r 0.0000000e+00 8.66e+04 1.13e+03  -8.9 1.54e+06    -  4.23e-01 8.66e-01h  1
 115r 0.0000000e+00 3.49e+04 2.91e+03  -8.9 3.57e+06    -  1.84e-01 4.72e-01h  1
 116r 0.0000000e+00 1.88e+04 2.15e+03  -8.9 4.89e+06    -  8.21e-02 2.58e-01f  1
 117r 0.0000000e+00 4.23e+04 6.53e+03  -8.9 3.04e+06    -  2.31e-01 9.88e-01h  1
 118r 0.0000000e+00 4.97e+04 4.08e+02  -8.9 4.12e+06    -  1.00e+00 9.38e-01f  1
 119r 0.0000000e+00 3.55e+04 1.82e+03  -8.9 1.40e+06    -  1.13e-01 5.63e-01h  1
iter    objective    inf_pr   inf_du lg(mu)  ||d||  lg(rg) alpha_du alpha_pr  ls
 120r 0.0000000e+00 2.87e+04 1.63e+03  -8.9 6.27e+06    -  2.27e-02 1.41e-01H  1
 121r 0.0000000e+00 2.86e+04 2.06e+03  -8.9 4.42e+06    -  3.57e-01 3.26e-03H  1
 122r 0.0000000e+00 1.18e+04 4.66e+03  -8.9 4.46e+06    -  6.68e-02 3.96e-01h  1
 123r 0.0000000e+00 1.16e+04 4.73e+03  -8.9 4.79e+06    -  7.25e-02 1.31e-02f  1
 124r 0.0000000e+00 7.42e+03 5.91e+03  -8.9 4.80e+06    -  2.40e-02 3.73e-01H  1
 125r 0.0000000e+00 6.96e+03 5.74e+03  -8.9 4.71e+06    -  1.00e+00 5.21e-02f  1
 126r 0.0000000e+00 1.02e+04 2.99e+03  -8.9 4.75e+06    -  2.56e-01 4.75e-01f  2
 127r 0.0000000e+00 9.20e+03 2.68e+03  -8.9 4.08e+06    -  1.34e-01 1.01e-01H  1
 128r 0.0000000e+00 9.02e+03 2.83e+03  -8.9 3.62e+06    -  6.00e-01 1.38e-02H  1
 129r 0.0000000e+00 8.23e+03 2.54e+03  -8.9 3.70e+06    -  3.47e-02 1.04e-01h  3
iter    objective    inf_pr   inf_du lg(mu)  ||d||  lg(rg) alpha_du alpha_pr  ls
 130r 0.0000000e+00 8.18e+03 4.23e+03  -8.9 3.23e+06    -  6.82e-01 4.13e-03H  1
 131r 0.0000000e+00 7.57e+03 3.22e+03  -8.9 3.25e+06    -  1.31e-01 9.05e-02h  3
 132r 0.0000000e+00 6.80e+03 1.94e+03  -8.9 2.87e+06    -  9.05e-02 1.55e-01h  2
 133r 0.0000000e+00 6.19e+03 1.62e+03  -8.9 2.27e+06    -  9.28e-01 1.16e-01h  1
 134r 0.0000000e+00 3.03e+03 6.93e+02  -8.9 1.17e+04    -  1.00e+00 5.07e-01h  1
 135r 0.0000000e+00 1.40e+02 2.37e+01  -8.9 5.76e+03    -  1.00e+00 9.46e-01h  1
 136r 0.0000000e+00 5.15e-02 1.75e-03  -8.9 3.11e+02    -  1.00e+00 1.00e+00h  1
 137r 0.0000000e+00 1.12e-06 4.28e-09  -8.9 3.11e-02    -  1.00e+00 1.00e+00h  1

Number of Iterations....: 137

                                   (scaled)                 (unscaled)
Objective...............:   0.0000000000000000e+00    0.0000000000000000e+00
Dual infeasibility......:   0.0000000000000000e+00    0.0000000000000000e+00
Constraint violation....:   5.2816639950492572e-11    1.1188801025407979e-06
Complementarity.........:   0.0000000000000000e+00    0.0000000000000000e+00
Overall NLP error.......:   5.2816639950492572e-11    1.1188801025407979e-06


Number of objective function evaluations             = 478
Number of objective gradient evaluations             = 44
Number of equality constraint evaluations            = 479
Number of inequality constraint evaluations          = 479
Number of equality constraint Jacobian evaluations   = 140
Number of inequality constraint Jacobian evaluations = 140
Number of Lagrangian Hessian evaluations             = 137
Total CPU secs in IPOPT (w/o function evaluations)   =      0.176
Total CPU secs in NLP function evaluations           =     28.142


Timing Statistics:

OverallAlgorithm....................:     28.318 (sys:      0.146 wall:     28.273)
 PrintProblemStatistics.............:      0.000 (sys:      0.000 wall:      0.000)
 InitializeIterates.................:      0.060 (sys:      0.017 wall:      0.021)
 UpdateHessian......................:      0.005 (sys:      0.000 wall:      0.005)
 OutputIteration....................:      0.010 (sys:      0.004 wall:      0.006)
 UpdateBarrierParameter.............:      0.000 (sys:      0.000 wall:      0.000)
 ComputeSearchDirection.............:      0.015 (sys:      0.001 wall:      0.014)
 ComputeAcceptableTrialPoint........:     28.222 (sys:      0.124 wall:     28.221)
 AcceptTrialPoint...................:      0.001 (sys:      0.000 wall:      0.001)
 CheckConvergence...................:      0.005 (sys:      0.000 wall:      0.005)
PDSystemSolverTotal.................:      0.015 (sys:      0.001 wall:      0.014)
 PDSystemSolverSolveOnce............:      0.013 (sys:      0.001 wall:      0.013)
 ComputeResiduals...................:      0.001 (sys:      0.000 wall:      0.001)
 StdAugSystemSolverMultiSolve.......:      0.043 (sys:      0.001 wall:      0.042)
 LinearSystemScaling................:      0.000 (sys:      0.000 wall:      0.000)
 LinearSystemSymbolicFactorization..:      0.001 (sys:      0.000 wall:      0.000)
 LinearSystemFactorization..........:      0.031 (sys:      0.000 wall:      0.031)
 LinearSystemBackSolve..............:      0.005 (sys:      0.000 wall:      0.005)
 LinearSystemStructureConverter.....:      0.000 (sys:      0.000 wall:      0.000)
  LinearSystemStructureConverterInit:      0.000 (sys:      0.000 wall:      0.000)
QualityFunctionSearch...............:      0.000 (sys:      0.000 wall:      0.000)
TryCorrector........................:      0.000 (sys:      0.000 wall:      0.000)
Task1...............................:      0.000 (sys:      0.000 wall:      0.000)
Task2...............................:      0.000 (sys:      0.000 wall:      0.000)
Task3...............................:      0.000 (sys:      0.000 wall:      0.000)
Task4...............................:      0.000 (sys:      0.000 wall:      0.000)
Task5...............................:      0.000 (sys:      0.000 wall:      0.000)
Function Evaluations................:     28.142 (sys:      0.124 wall:     28.140)
 Objective function.................:      0.030 (sys:      0.000 wall:      0.030)
 Objective function gradient........:      0.000 (sys:      0.000 wall:      0.000)
 Equality constraints...............:     28.091 (sys:      0.124 wall:     28.090)
 Inequality constraints.............:      0.002 (sys:      0.000 wall:      0.001)
 Equality constraint Jacobian.......:      0.000 (sys:      0.000 wall:      0.000)
 Inequality constraint Jacobian.....:      0.004 (sys:      0.000 wall:      0.004)
 Lagrangian Hessian.................:      0.015 (sys:      0.000 wall:      0.015)

EXIT: Optimal Solution Found.
